NAME: tsp_364
COMMENT: Random TSP instance
TYPE: TSP
DIMENSION: 50
EDGE_WEIGHT_TYPE: EUC_2D
NODE_COORD_SECTION
1 898 660
2 525 251
3 785 766
4 64 950
5 926 359
6 830 135
7 782 886
8 587 51
9 57 708
10 369 310
11 447 993
12 328 617
13 398 163
14 508 445
15 972 366
16 546 748
17 825 45
18 133 124
19 826 621
20 105 439
21 851 4
22 288 262
23 956 905
24 848 315
25 538 245
26 61 508
27 820 792
28 619 873
29 434 377
30 922 831
31 225 969
32 907 458
33 773 599
34 860 806
35 500 391
36 160 752
37 329 296
38 359 506
39 146 297
40 575 231
41 217 392
42 870 188
43 716 366
44 384 228
45 333 431
46 440 188
47 445 631
48 355 667
49 703 462
50 524 973
